PreSolver/instances/dataset_final/sat_subsetcard_32_256_58681.cnf
c description: Subset cardinality formula for complete_bipartite_graph(8,4)
c generator: CNFgen (0.9.0)
c copyright: (C) 2012-2020 Massimo Lauria <massimo.lauria@uniroma1.it>
c url: https://massimolauria.net/cnfgen
c
p cnf 32 256
1 2 3 0
1 2 4 0
1 3 4 0
2 3 4 0
5 6 7 0
5 6 8 0
5 7 8 0
6 7 8 0
9 10 11 0
9 10 12 0
9 11 12 0
10 11 12 0
13 14 15 0
13 14 16 0
13 15 16 0
14 15 16 0
17 18 19 0
17 18 20 0
17 19 20 0
18 19 20 0
21 22 23 0
21 22 24 0
21 23 24 0
22 23 24 0
25 26 27 0
25 26 28 0
25 27 28 0
26 27 28 0
29 30 31 0
29 30 32 0
29 31 32 0
30 31 32 0
-1 -5 -9 -13 -17 0
-1 -5 -9 -13 -21 0
-1 -5 -9 -13 -25 0
-1 -5 -9 -13 -29 0
-1 -5 -9 -17 -21 0
-1 -5 -9 -17 -25 0
-1 -5 -9 -17 -29 0
-1 -5 -9 -21 -25 0
-1 -5 -9 -21 -29 0
-1 -5 -9 -25 -29 0
-1 -5 -13 -17 -21 0
-1 -5 -13 -17 -25 0
-1 -5 -13 -17 -29 0
-1 -5 -13 -21 -25 0
-1 -5 -13 -21 -29 0
-1 -5 -13 -25 -29 0
-1 -5 -17 -21 -25 0
-1 -5 -17 -21 -29 0
-1 -5 -17 -25 -29 0
-1 -5 -21 -25 -29 0
-1 -9 -13 -17 -21 0
-1 -9 -13 -17 -25 0
-1 -9 -13 -17 -29 0
-1 -9 -13 -21 -25 0
-1 -9 -13 -21 -29 0
-1 -9 -13 -25 -29 0
-1 -9 -17 -21 -25 0
-1 -9 -17 -21 -29 0
-1 -9 -17 -25 -29 0
-1 -9 -21 -25 -29 0
-1 -13 -17 -21 -25 0
-1 -13 -17 -21 -29 0
-1 -13 -17 -25 -29 0
-1 -13 -21 -25 -29 0
-1 -17 -21 -25 -29 0
-5 -9 -13 -17 -21 0
-5 -9 -13 -17 -25 0
-5 -9 -13 -17 -29 0
-5 -9 -13 -21 -25 0
-5 -9 -13 -21 -29 0
-5 -9 -13 -25 -29 0
-5 -9 -17 -21 -25 0
-5 -9 -17 -21 -29 0
-5 -9 -17 -25 -29 0
-5 -9 -21 -25 -29 0
-5 -13 -17 -21 -25 0
-5 -13 -17 -21 -29 0
-5 -13 -17 -25 -29 0
-5 -13 -21 -25 -29 0
-5 -17 -21 -25 -29 0
-9 -13 -17 -21 -25 0
-9 -13 -17 -21 -29 0
-9 -13 -17 -25 -29 0
-9 -13 -21 -25 -29 0
-9 -17 -21 -25 -29 0
-13 -17 -21 -25 -29 0
-2 -6 -10 -14 -18 0
-2 -6 -10 -14 -22 0
-2 -6 -10 -14 -26 0
-2 -6 -10 -14 -30 0
-2 -6 -10 -18 -22 0
-2 -6 -10 -18 -26 0
-2 -6 -10 -18 -30 0
-2 -6 -10 -22 -26 0
-2 -6 -10 -22 -30 0
-2 -6 -10 -26 -30 0
-2 -6 -14 -18 -22 0
-2 -6 -14 -18 -26 0
-2 -6 -14 -18 -30 0
-2 -6 -14 -22 -26 0
-2 -6 -14 -22 -30 0
-2 -6 -14 -26 -30 0
-2 -6 -18 -22 -26 0
-2 -6 -18 -22 -30 0
-2 -6 -18 -26 -30 0
-2 -6 -22 -26 -30 0
-2 -10 -14 -18 -22 0
-2 -10 -14 -18 -26 0
-2 -10 -14 -18 -30 0
-2 -10 -14 -22 -26 0
-2 -10 -14 -22 -30 0
-2 -10 -14 -26 -30 0
-2 -10 -18 -22 -26 0
-2 -10 -18 -22 -30 0
-2 -10 -18 -26 -30 0
-2 -10 -22 -26 -30 0
-2 -14 -18 -22 -26 0
-2 -14 -18 -22 -30 0
-2 -14 -18 -26 -30 0
-2 -14 -22 -26 -30 0
-2 -18 -22 -26 -30 0
-6 -10 -14 -18 -22 0
-6 -10 -14 -18 -26 0
-6 -10 -14 -18 -30 0
-6 -10 -14 -22 -26 0
-6 -10 -14 -22 -30 0
-6 -10 -14 -26 -30 0
-6 -10 -18 -22 -26 0
-6 -10 -18 -22 -30 0
-6 -10 -18 -26 -30 0
-6 -10 -22 -26 -30 0
-6 -14 -18 -22 -26 0
-6 -14 -18 -22 -30 0
-6 -14 -18 -26 -30 0
-6 -14 -22 -26 -30 0
-6 -18 -22 -26 -30 0
-10 -14 -18 -22 -26 0
-10 -14 -18 -22 -30 0
-10 -14 -18 -26 -30 0
-10 -14 -22 -26 -30 0
-10 -18 -22 -26 -30 0
-14 -18 -22 -26 -30 0
-3 -7 -11 -15 -19 0
-3 -7 -11 -15 -23 0
-3 -7 -11 -15 -27 0
-3 -7 -11 -15 -31 0
-3 -7 -11 -19 -23 0
-3 -7 -11 -19 -27 0
-3 -7 -11 -19 -31 0
-3 -7 -11 -23 -27 0
-3 -7 -11 -23 -31 0
-3 -7 -11 -27 -31 0
-3 -7 -15 -19 -23 0
-3 -7 -15 -19 -27 0
-3 -7 -15 -19 -31 0
-3 -7 -15 -23 -27 0
-3 -7 -15 -23 -31 0
-3 -7 -15 -27 -31 0
-3 -7 -19 -23 -27 0
-3 -7 -19 -23 -31 0
-3 -7 -19 -27 -31 0
-3 -7 -23 -27 -31 0
-3 -11 -15 -19 -23 0
-3 -11 -15 -19 -27 0
-3 -11 -15 -19 -31 0
-3 -11 -15 -23 -27 0
-3 -11 -15 -23 -31 0
-3 -11 -15 -27 -31 0
-3 -11 -19 -23 -27 0
-3 -11 -19 -23 -31 0
-3 -11 -19 -27 -31 0
-3 -11 -23 -27 -31 0
-3 -15 -19 -23 -27 0
-3 -15 -19 -23 -31 0
-3 -15 -19 -27 -31 0
-3 -15 -23 -27 -31 0
-3 -19 -23 -27 -31 0
-7 -11 -15 -19 -23 0
-7 -11 -15 -19 -27 0
-7 -11 -15 -19 -31 0
-7 -11 -15 -23 -27 0
-7 -11 -15 -23 -31 0
-7 -11 -15 -27 -31 0
-7 -11 -19 -23 -27 0
-7 -11 -19 -23 -31 0
-7 -11 -19 -27 -31 0
-7 -11 -23 -27 -31 0
-7 -15 -19 -23 -27 0
-7 -15 -19 -23 -31 0
-7 -15 -19 -27 -31 0
-7 -15 -23 -27 -31 0
-7 -19 -23 -27 -31 0
-11 -15 -19 -23 -27 0
-11 -15 -19 -23 -31 0
-11 -15 -19 -27 -31 0
-11 -15 -23 -27 -31 0
-11 -19 -23 -27 -31 0
-15 -19 -23 -27 -31 0
-4 -8 -12 -16 -20 0
-4 -8 -12 -16 -24 0
-4 -8 -12 -16 -28 0
-4 -8 -12 -16 -32 0
-4 -8 -12 -20 -24 0
-4 -8 -12 -20 -28 0
-4 -8 -12 -20 -32 0
-4 -8 -12 -24 -28 0
-4 -8 -12 -24 -32 0
-4 -8 -12 -28 -32 0
-4 -8 -16 -20 -24 0
-4 -8 -16 -20 -28 0
-4 -8 -16 -20 -32 0
-4 -8 -16 -24 -28 0
-4 -8 -16 -24 -32 0
-4 -8 -16 -28 -32 0
-4 -8 -20 -24 -28 0
-4 -8 -20 -24 -32 0
-4 -8 -20 -28 -32 0
-4 -8 -24 -28 -32 0
-4 -12 -16 -20 -24 0
-4 -12 -16 -20 -28 0
-4 -12 -16 -20 -32 0
-4 -12 -16 -24 -28 0
-4 -12 -16 -24 -32 0
-4 -12 -16 -28 -32 0
-4 -12 -20 -24 -28 0
-4 -12 -20 -24 -32 0
-4 -12 -20 -28 -32 0
-4 -12 -24 -28 -32 0
-4 -16 -20 -24 -28 0
-4 -16 -20 -24 -32 0
-4 -16 -20 -28 -32 0
-4 -16 -24 -28 -32 0
-4 -20 -24 -28 -32 0
-8 -12 -16 -20 -24 0
-8 -12 -16 -20 -28 0
-8 -12 -16 -20 -32 0
-8 -12 -16 -24 -28 0
-8 -12 -16 -24 -32 0
-8 -12 -16 -28 -32 0
-8 -12 -20 -24 -28 0
-8 -12 -20 -24 -32 0
-8 -12 -20 -28 -32 0
-8 -12 -24 -28 -32 0
-8 -16 -20 -24 -28 0
-8 -16 -20 -24 -32 0
-8 -16 -20 -28 -32 0
-8 -16 -24 -28 -32 0
-8 -20 -24 -28 -32 0
-12 -16 -20 -24 -28 0
-12 -16 -20 -24 -32 0
-12 -16 -20 -28 -32 0
-12 -16 -24 -28 -32 0
-12 -20 -24 -28 -32 0
-16 -20 -24 -28 -32 0