PreSolver/instances/dataset_final_sat/results_control_0/sat_subsetcard_32_256_58681.txt

c instance name       :  PreSolver/PreSolver/instances/dataset_final_sat/sat_subsetcard_32_256_58681.cnf
c number of variables :  32
c number of literals  :  64
c number of clauses   :  256
c max. clause length  :  5

c probSAT parameteres: 
c using:              : only break          
c using:              : exponential function
c cb                  : 3.700000
c function:           : probsBreak[break]*probsMake[make] = pow(cb, -break);
c using:              : caching of break values

c general parameteres: 
c maxTries            : 9223372036854775807
c maxFlips            : 9223372036854775807
c seed                : 1691587296
c -->Starting solver  : 

c EndStatistics:
c numFlips                      : 15       
c avg. flips/variable           : 0.47    
c avg. flips/clause             : 0.06    
c flips/sec                     : inf     
c CPU Time                      : 0.0000  
c Number of tries		: 1
s SATISFIABLE
v 1 -2 -3 4 5 6 -7 -8 -9 10 -11 12 13 -14 15 -16 -17 18 19 -20 
v -21 -22 23 24 25 -26 27 -28 -29 30 -31 32 